language ESSENCE' 1.0
letting lastdx=92
letting cage be [
[15,7,12,7,11,0,0, 0,0, 0,0],
[41,6,2,7,2,7,3,8,3,9,3],
[32,14,10,15,10,15,11,16,11,0,0],
[34,10,12,11,12,11,11,12,11,12,12],
[4,15,14,0,0, 0,0, 0,0, 0,0],
[47,15,8,14,8,14,9,13,9,13,10],
[14,6,9,5,9,0,0, 0,0, 0,0],
[22,9,6,10,6,10,5,11,5,0,0],
[15,12,14,0,0, 0,0, 0,0, 0,0],
[17,12,9,12,8,0,0, 0,0, 0,0],
[28,14,7,15,7,16,7,0,0, 0,0],
[10,10,8,0,0, 0,0, 0,0, 0,0],
[7,6,3,0,0, 0,0, 0,0, 0,0],
[26,4,12,4,13,0,0, 0,0, 0,0],
[39,16,4,16,3,15,3,15,2,0,0],
[11,12,6,0,0, 0,0, 0,0, 0,0],
[10,1,14,1,15,0,0, 0,0, 0,0],
[15,11,10,12,10,0,0, 0,0, 0,0],
[26,1,16,2,16,3,16,0,0, 0,0],
[2,12,3,0,0, 0,0, 0,0, 0,0],
[35,4,6,5,6,5,7,5,8,6,8],
[3,5,12,0,0, 0,0, 0,0, 0,0],
[7,8,11,0,0, 0,0, 0,0, 0,0],
[7,12,1,0,0, 0,0, 0,0, 0,0],
[57,13,3,13,2,14,2,14,3,14,4],
[14,16,14,0,0, 0,0, 0,0, 0,0],
[2,13,13,0,0, 0,0, 0,0, 0,0],
[1,4,14,0,0, 0,0, 0,0, 0,0],
[21,13,5,13,6,0,0, 0,0, 0,0],
[43,10,11,9,11,9,10,8,10,0,0],
[29,8,4,7,4,6,4,5,4,0,0],
[10,2,9,2,10,0,0, 0,0, 0,0],
[29,16,9,15,9,16,8,16,10,0,0],
[6,3,1,0,0, 0,0, 0,0, 0,0],
[41,2,3,2,4,3,4,3,3,4,3],
[38,9,1,9,2,8,2,8,1,0,0],
[5,10,3,0,0, 0,0, 0,0, 0,0],
[37,3,5,3,6,3,7,0,0, 0,0],
[41,3,10,3,11,4,11,5,11,0,0],
[36,8,12,9,12,9,13,0,0, 0,0],
[19,10,14,9,14,8,14,8,15,0,0],
[14,8,7,7,7,0,0, 0,0, 0,0],
[22,11,8,11,9,0,0, 0,0, 0,0],
[7,15,13,14,13,0,0, 0,0, 0,0],
[1,6,11,0,0, 0,0, 0,0, 0,0],
[31,9,15,9,16,8,16,7,16,0,0],
[18,1,13,1,12,2,12,0,0, 0,0],
[11,13,11,0,0, 0,0, 0,0, 0,0],
[35,13,15,13,16,12,16,11,16,10,16],
[23,2,15,3,15,0,0, 0,0, 0,0],
[35,14,11,14,12,13,12,0,0, 0,0],
[49,4,2,5,2,5,3,5,1,4,1],
[23,7,8,7,9,7,10,0,0, 0,0],
[40,2,1,1,1,1,2,1,3,0,0],
[57,15,4,15,5,16,5,16,6,15,6],
[14,10,9,10,10,0,0, 0,0, 0,0],
[20,9,5,8,5,8,6,0,0, 0,0],
[42,1,5,1,4,1,6,2,6,2,5],
[6,6,5,0,0, 0,0, 0,0, 0,0],
[10,14,5,14,6,0,0, 0,0, 0,0],
[25,1,11,2,11,1,10,0,0, 0,0],
[5,15,1,0,0, 0,0, 0,0, 0,0],
[35,4,4,4,5,5,5,0,0, 0,0],
[41,4,9,4,8,4,7,3,8,3,9],
[16,7,6,7,5,0,0, 0,0, 0,0],
[7,3,2,2,2,0,0, 0,0, 0,0],
[30,5,14,6,14,6,15,7,15,0,0],
[18,12,7,13,7,13,8,0,0, 0,0],
[49,3,14,3,13,3,12,2,13,2,14],
[13,5,13,0,0, 0,0, 0,0, 0,0],
[9,2,8,0,0, 0,0, 0,0, 0,0],
[10,16,2,16,1,0,0, 0,0, 0,0],
[24,10,1,11,1,0,0, 0,0, 0,0],
[35,15,15,15,16,16,16,16,15,0,0],
[22,1,7,2,7,0,0, 0,0, 0,0],
[17,15,12,16,12,16,13,0,0, 0,0],
[16,1,8,1,9,0,0, 0,0, 0,0],
[30,4,10,5,10,6,10,0,0, 0,0],
[46,4,15,5,15,5,16,4,16,6,16],
[12,6,1,7,1,0,0, 0,0, 0,0],
[23,6,6,6,7,0,0, 0,0, 0,0],
[49,6,12,6,13,7,13,7,14,8,13],
[35,8,8,9,8,9,9,8,9,0,0],
[15,9,4,10,4,0,0, 0,0, 0,0],
[14,9,7,0,0, 0,0, 0,0, 0,0],
[15,10,2,0,0, 0,0, 0,0, 0,0],
[20,10,7,11,7,11,6,0,0, 0,0],
[16,10,13,0,0, 0,0, 0,0, 0,0],
[11,10,15,0,0, 0,0, 0,0, 0,0],
[35,11,2,11,3,12,2,0,0, 0,0],
[47,11,13,12,13,11,14,11,15,12,15],
[5,13,1,14,1,0,0, 0,0, 0,0],
[44,13,14,14,14,14,15,14,16,0,0]
]
